NAME: Random_45_1
ELLAPSED_TIME_(ms): 200
TOUR_SIZE: 722
TOUR_SECTION
0
41
13
4
26
37
36
38
24
5
2
11
28
43
34
33
42
27
29
23
44
21
7
16
10
12
1
19
25
35
3
9
30
20
17
32
39
15
22
31
18
40
6
8
14
0
EOF
